p tw 714 1334
1 350
1 351
1 516
1 517
1 619
1 620
2 300
2 301
3 693
3 694
4 91
4 377
4 378
4 447
4 448
4 463
4 523
4 524
5 276
5 277
5 459
5 460
5 476
5 477
5 535
5 536
6 656
6 657
7 562
7 563
8 364
8 365
8 477
8 478
8 547
8 548
9 588
9 589
10 604
10 605
10 675
10 676
11 387
11 388
12 277
12 278
12 478
12 479
12 548
12 549
13 278
13 279
14 409
14 410
15 626
15 627
16 329
16 330
16 489
16 490
16 600
16 601
17 292
17 293
17 456
17 457
17 532
17 533
18 670
18 671
19 691
19 692
20 371
20 372
21 671
21 672
22 379
22 380
23 299
23 300
23 573
23 574
23 633
23 634
24 274
24 275
25 426
25 427
26 297
26 298
26 572
26 573
27 340
27 341
27 461
27 462
27 506
27 507
28 674
28 675
29 640
29 641
30 662
30 663
31 298
31 299
32 323
32 324
33 429
33 430
34 658
34 659
35 664
35 665
36 346
36 347
37 648
37 649
38 402
38 403
39 663
39 664
40 436
40 437
40 613
40 614
41 280
41 281
42 683
42 684
43 343
43 344
43 446
43 447
43 509
43 510
43 522
43 523
44 435
44 436
45 395
45 396
46 281
46 282
47 275
47 276
47 475
47 476
47 546
47 547
48 655
48 656
49 410
49 411
50 82
50 351
50 352
50 638
51 643
51 644
52 375
52 376
53 378
53 379
53 445
53 446
53 521
53 522
54 271
54 272
54 539
54 540
55 653
55 654
56 384
56 385
56 495
56 496
56 564
56 565
57 701
57 702
58 385
58 386
59 347
59 348
60 216
60 714
61 362
61 363
62 551
62 552
63 685
63 686
64 678
64 679
65 440
65 441
66 328
66 329
67 78
67 373
67 374
67 460
67 536
68 642
68 643
69 401
69 402
70 388
70 389
70 499
70 500
71 397
71 398
72 605
72 606
73 676
73 677
73 709
73 710
74 184
74 700
75 417
75 418
75 595
75 596
76 688
76 689
77 312
77 313
78 390
78 391
78 460
78 536
78 681
78 682
79 282
79 283
80 686
80 687
81 707
81 708
82 638
83 398
83 399
84 365
84 366
84 660
84 661
84 706
84 707
85 411
85 412
85 455
85 456
85 474
85 475
85 531
85 532
86 439
86 440
87 434
87 435
88 335
88 336
88 498
88 499
88 608
88 609
89 644
89 645
90 637
90 638
91 261
91 414
91 415
91 463
91 537
92 370
92 371
92 454
92 455
92 529
92 530
92 554
92 555
93 320
93 321
93 481
93 482
93 589
93 590
94 412
94 413
95 639
95 640
96 296
96 297
96 448
96 449
96 510
96 511
96 524
96 525
96 571
96 572
97 357
97 358
98 672
98 673
99 661
99 662
100 408
100 409
100 581
100 582
101 405
101 406
101 575
101 576
102 124
102 352
102 353
102 518
102 620
102 621
103 400
103 401
103 574
103 575
104 396
104 397
104 511
104 512
104 570
104 571
105 430
105 431
106 696
106 697
107 413
107 414
107 591
107 592
108 307
108 308
109 437
109 438
109 512
109 513
109 628
109 629
110 359
110 360
110 449
110 450
110 468
110 469
110 525
110 526
110 543
110 544
111 285
111 286
111 458
111 459
111 486
111 487
111 534
111 535
112 327
112 328
113 634
113 635
114 369
114 370
115 360
115 361
115 470
115 471
115 545
115 546
116 694
116 695
117 566
117 567
118 427
118 428
119 654
119 655
120 667
120 668
121 333
121 334
122 313
122 314
122 451
122 452
122 527
122 528
123 615
123 616
124 204
124 354
124 355
124 518
124 621
125 322
125 323
126 304
126 305
127 679
127 680
128 699
128 700
129 690
129 691
130 353
130 354
131 428
131 429
131 710
131 711
132 393
132 394
132 505
132 506
132 625
132 626
132 704
132 705
133 386
133 387
134 698
134 699
135 711
135 712
136 650
136 651
137 651
137 652
138 283
138 284
138 483
138 484
138 553
138 554
138 668
138 669
139 374
139 375
140 407
140 408
140 580
140 581
141 315
141 316
141 585
141 586
142 420
142 421
142 484
142 485
142 596
142 597
143 286
143 287
143 558
143 559
144 316
144 317
144 473
144 474
145 684
145 685
146 270
146 271
146 464
146 465
146 538
146 539
147 552
147 553
148 431
148 432
149 695
149 696
150 392
150 393
150 622
150 623
151 319
151 320
151 587
151 588
152 708
152 709
153 303
153 304
153 514
153 515
153 576
153 577
154 673
154 674
155 657
155 658
156 314
156 315
156 472
156 473
156 584
156 585
157 557
157 558
158 389
158 390
158 501
158 502
158 567
158 568
159 594
159 595
160 337
160 338
161 361
161 362
162 273
162 274
162 467
162 468
162 541
162 542
163 542
163 543
164 363
164 364
165 287
165 288
165 493
165 494
165 560
165 561
166 606
166 607
167 636
167 637
168 336
168 337
168 453
168 454
168 497
168 498
168 530
168 531
169 324
169 325
170 288
170 289
170 494
170 495
171 272
171 273
171 466
171 467
171 540
171 541
172 624
172 625
172 703
172 704
173 291
173 292
173 496
173 497
173 565
173 566
174 646
174 647
175 349
175 350
175 515
175 516
175 617
175 618
176 432
176 433
177 317
177 318
177 586
177 587
178 649
178 650
179 666
179 667
180 697
180 698
181 355
181 356
181 641
181 642
182 345
182 346
182 513
182 514
182 614
182 615
183 380
183 381
183 559
183 560
184 700
185 376
185 377
185 444
185 445
185 491
185 492
185 520
185 521
185 556
185 557
186 293
186 294
186 502
186 503
186 568
186 569
187 295
187 296
187 507
187 508
188 578
188 579
189 421
189 422
189 487
189 488
189 598
189 599
190 372
190 373
191 403
191 404
192 630
192 631
193 326
193 327
194 635
194 636
195 310
195 311
196 689
196 690
197 318
197 319
197 623
197 624
198 331
198 332
199 702
199 703
200 645
200 646
201 602
201 603
202 682
202 683
203 334
203 335
203 607
203 608
204 209
204 441
204 621
205 425
205 426
206 366
206 367
206 479
206 480
206 549
206 550
207 301
207 302
208 308
208 309
208 579
208 580
209 441
209 517
209 518
209 618
209 619
210 279
210 280
210 480
210 481
210 550
210 551
211 342
211 343
211 627
211 628
212 665
212 666
213 356
213 357
213 465
213 466
214 381
214 382
215 289
215 290
216 714
217 368
217 369
218 321
218 322
218 590
218 591
219 382
219 383
220 422
220 423
220 488
220 489
220 599
220 600
221 306
221 307
222 415
222 416
222 482
222 483
222 592
222 593
223 680
223 681
224 406
224 407
225 544
225 545
226 305
226 306
226 577
226 578
227 424
227 425
227 492
227 493
227 603
227 604
228 561
228 562
229 339
229 340
229 442
229 443
229 504
229 505
230 418
230 419
231 332
231 333
232 309
232 310
232 469
232 470
232 583
232 584
233 404
233 405
233 452
233 453
233 528
233 529
234 438
234 439
235 611
235 612
236 687
236 688
237 330
237 331
238 582
238 583
239 416
239 417
239 631
239 632
240 391
240 392
241 692
241 693
242 294
242 295
243 367
243 368
244 419
244 420
244 485
244 486
244 669
244 670
244 712
244 713
245 423
245 424
245 490
245 491
245 601
245 602
246 344
246 345
247 659
247 660
248 394
248 395
248 508
248 509
248 569
248 570
249 348
249 349
249 616
249 617
250 358
250 359
251 677
251 678
252 433
252 434
252 503
252 504
252 610
252 611
253 705
253 706
254 597
254 598
255 383
255 384
256 338
256 339
256 457
256 458
256 500
256 501
256 533
256 534
256 609
256 610
257 341
257 342
258 629
258 630
259 652
259 653
260 325
260 326
260 593
260 594
261 311
261 312
261 450
261 451
261 462
261 463
261 471
261 472
261 526
261 527
261 537
262 290
262 291
262 563
262 564
263 399
263 400
264 443
264 444
264 519
264 520
265 284
265 285
265 555
265 556
266 302
266 303
266 713
266 714
267 647
267 648
268 632
268 633
269 612
269 613
270 271
271 272
272 273
273 274
274 275
275 276
276 277
277 278
278 279
279 280
280 281
281 282
282 283
283 284
284 285
285 286
286 287
287 288
288 289
289 290
290 291
291 292
292 293
293 294
294 295
295 296
296 297
297 298
298 299
299 300
300 301
301 302
302 303
303 304
304 305
305 306
306 307
307 308
308 309
309 310
310 311
311 312
312 313
313 314
314 315
315 316
316 317
317 318
318 319
319 320
320 321
321 322
322 323
323 324
324 325
325 326
326 327
327 328
328 329
329 330
330 331
331 332
332 333
333 334
334 335
335 336
336 337
337 338
338 339
339 340
340 341
341 342
342 343
343 344
344 345
345 346
346 347
347 348
348 349
349 350
350 351
351 352
352 353
353 354
354 355
355 356
356 357
357 358
358 359
359 360
360 361
361 362
362 363
363 364
364 365
365 366
366 367
367 368
368 369
369 370
370 371
371 372
372 373
373 374
374 375
375 376
376 377
377 378
378 379
379 380
380 381
381 382
382 383
383 384
384 385
385 386
386 387
387 388
388 389
389 390
390 391
391 392
392 393
393 394
394 395
395 396
396 397
397 398
398 399
399 400
400 401
401 402
402 403
403 404
404 405
405 406
406 407
407 408
408 409
409 410
410 411
411 412
412 413
413 414
414 415
415 416
416 417
417 418
418 419
419 420
420 421
421 422
422 423
423 424
424 425
425 426
426 427
427 428
428 429
429 430
430 431
431 432
432 433
433 434
434 435
435 436
436 437
437 438
438 439
439 440
440 441
442 443
443 444
444 445
445 446
446 447
447 448
448 449
449 450
450 451
451 452
452 453
453 454
454 455
455 456
456 457
457 458
458 459
459 460
461 462
462 463
464 465
465 466
466 467
467 468
468 469
469 470
470 471
471 472
472 473
473 474
474 475
475 476
476 477
477 478
478 479
479 480
480 481
481 482
482 483
483 484
484 485
485 486
486 487
487 488
488 489
489 490
490 491
491 492
492 493
493 494
494 495
495 496
496 497
497 498
498 499
499 500
500 501
501 502
502 503
503 504
504 505
505 506
506 507
507 508
508 509
509 510
510 511
511 512
512 513
513 514
514 515
515 516
516 517
517 518
519 520
520 521
521 522
522 523
523 524
524 525
525 526
526 527
527 528
528 529
529 530
530 531
531 532
532 533
533 534
534 535
535 536
538 539
539 540
540 541
541 542
542 543
543 544
544 545
545 546
546 547
547 548
548 549
549 550
550 551
551 552
552 553
553 554
554 555
555 556
556 557
557 558
558 559
559 560
560 561
561 562
562 563
563 564
564 565
565 566
566 567
567 568
568 569
569 570
570 571
571 572
572 573
573 574
574 575
575 576
576 577
577 578
578 579
579 580
580 581
581 582
582 583
583 584
584 585
585 586
586 587
587 588
588 589
589 590
590 591
591 592
592 593
593 594
594 595
595 596
596 597
597 598
598 599
599 600
600 601
601 602
602 603
603 604
604 605
605 606
606 607
607 608
608 609
609 610
610 611
611 612
612 613
613 614
614 615
615 616
616 617
617 618
618 619
619 620
620 621
622 623
623 624
624 625
625 626
626 627
627 628
628 629
629 630
630 631
631 632
632 633
633 634
634 635
635 636
636 637
637 638
639 640
640 641
641 642
642 643
643 644
644 645
645 646
646 647
647 648
648 649
649 650
650 651
651 652
652 653
653 654
654 655
655 656
656 657
657 658
658 659
659 660
660 661
661 662
662 663
663 664
664 665
665 666
666 667
667 668
668 669
669 670
670 671
671 672
672 673
673 674
674 675
675 676
676 677
677 678
678 679
679 680
680 681
681 682
682 683
683 684
684 685
685 686
686 687
687 688
688 689
689 690
690 691
691 692
692 693
693 694
694 695
695 696
696 697
697 698
698 699
699 700
701 702
702 703
703 704
704 705
705 706
706 707
707 708
708 709
709 710
710 711
711 712
712 713
713 714
